c File: instances/18_0.55_3.col
c
c Description: Random graph of size 18 vertices and P(0.5499999999999999) of edges between any two vertices.
p col 18 153
e 1 2
e 1 3
e 1 6
e 1 7
e 1 8
e 1 9
e 1 15
e 1 16
e 2 3
e 2 4
e 2 6
e 2 9
e 2 10
e 2 11
e 2 12
e 2 13
e 2 15
e 2 17
e 2 18
e 3 6
e 3 7
e 3 8
e 3 9
e 3 10
e 3 11
e 3 12
e 3 14
e 3 15
e 3 18
e 4 12
e 4 13
e 4 16
e 4 18
e 5 7
e 5 8
e 5 9
e 5 10
e 5 13
e 5 14
e 5 15
e 5 16
e 6 7
e 6 8
e 6 9
e 6 10
e 6 11
e 6 12
e 6 13
e 6 15
e 6 16
e 6 18
e 7 10
e 7 15
e 7 16
e 7 18
e 8 9
e 8 10
e 8 13
e 8 14
e 8 15
e 8 16
e 9 11
e 9 13
e 9 14
e 9 18
e 10 12
e 10 13
e 10 15
e 10 16
e 10 17
e 11 12
e 11 13
e 11 14
e 11 15
e 12 16
e 12 17
e 12 18
e 13 14
e 13 16
e 13 17
e 13 18
e 14 17
e 14 18
e 15 16
e 15 18
e 16 18